tsp_instances/TSP50/instance28.tsp
NODE_COORD_SECTION
0 123 64
1 109 27
2 123 137
3 181 85
4 188 143
5 165 119
6 165 123
7 34 119
8 26 49
9 136 29
10 182 90
11 42 142
12 19 123
13 172 0
14 124 134
15 74 77
16 162 178
17 66 43
18 113 149
19 41 157
20 160 151
21 168 1
22 3 195
23 115 97
24 188 27
25 111 36
26 68 120
27 149 60
28 113 134
29 47 119
30 106 140
31 88 8
32 106 184
33 100 144
34 6 84
35 69 176
36 69 60
37 107 5
38 91 96
39 82 70
40 7 110
41 126 10
42 149 171
43 6 120
44 51 36
45 134 117
46 15 163
47 73 82
48 42 17
49 72 154
