tsp_instances/TSP50/instance28.opt.tour
TOUR_SECTION
1
24
39
48
16
40
37
18
45
49
9
35
41
44
13
8
30
27
12
20
47
23
36
50
34
31
29
46
15
3
19
33
43
17
21
5
7
6
11
4
28
25
14
22
10
42
38
32
2
26
-1